80 8
5 55
35 98
21 38
82 41
71 58
100 15
82 83
58 48
84 72
61 8
95 86
28 30
77 72
45 80
13 61
53 30
72 29
98 99
32 49
65 54
65 95
87 62
24 38
8 59
3 48
46 8
79 18
46 8
30 68
25 6
44 16
11 17
43 70
69 29
60 65
48 50
46 1
89 86
16 40
54 7
19 8
6 9
83 86
35 8
28 76
36 33
73 3
59 2
51 5
65 72
35 25
76 52
47 85
78 14
36 36
54 64
12 75
80 21
54 37
16 49
31 26
47 64
6 19
68 46
11 64
70 20
13 60
73 10
5 31
96 57
72 9
52 53
19 99
51 17
7 27
32 50
73 43
70 54
53 8
16 55
334 392
508 579
322 378
280 336
343 388
301 354
286 328
323 369
